NAME: instance
TYPE: TSP
DIMENSION: 10
EDGE_WEIGHT_TYPE: EXPLICIT
EDGE_WEIGHT_FORMAT: FULL_MATRIX
EDGE_WEIGHT_SECTION
0 43400 19700 48300 43100 49400 45000 45700 26900 18900 
43400 0 38200 14200 14700 8800 44100 18300 12100 32100 
19700 38200 0 30000 17700 29500 11700 49300 30200 21400 
48300 14200 30000 0 45000 9200 15600 14000 20200 7300 
43100 14700 17700 45000 0 22400 20000 43300 47500 47800 
49400 8800 29500 9200 22400 0 33700 7400 39000 41400 
45000 44100 11700 15600 20000 33700 0 28400 39100 31800 
45700 18300 49300 14000 43300 7400 28400 0 11600 47900 
26900 12100 30200 20200 47500 39000 39100 11600 0 21200 
18900 32100 21400 7300 47800 41400 31800 47900 21200 0 
